
Gurobi 12.0.2 (mac64[arm]) logging started Fri Jun 13 20:54:26 2025

Set parameter LogFile to value "/Users/yurunfeng/Documents/GitHub/LRGTS-store-location/result/gurobi/snyder/49nodes/49-0.9-3.log"
Gurobi Optimizer version 12.0.2 build v12.0.2rc0 (mac64[arm] - Darwin 24.5.0 24F74)

CPU model: Apple M4
Thread count: 10 physical cores, 10 logical processors, using up to 10 threads

Non-default parameters:
TimeLimit  1200

Optimize a model with 132251 rows, 240247 columns and 1133517 nonzeros
Model fingerprint: 0x64295651
Variable types: 120099 continuous, 120148 integer (120148 binary)
Coefficient statistics:
  Matrix range     [1e-01, 1e+00]
  Objective range  [2e+02, 3e+06]
  Bounds range     [1e+00, 1e+00]
  RHS range        [1e+00, 3e+00]
Found heuristic solution: objective 2.470516e+07
Presolve removed 4900 rows and 2450 columns
Presolve time: 1.27s
Presolved: 127351 rows, 237797 columns, 1006117 nonzeros
Variable types: 117649 continuous, 120148 integer (120148 binary)
Deterministic concurrent LP optimizer: primal simplex, dual simplex, and barrier
Showing barrier log only...

Root barrier log...

Ordering time: 0.65s

Barrier performed 0 iterations in 2.23 seconds (5.29 work units)
Barrier solve interrupted - model solved by another algorithm

Concurrent spin time: 0.43s (can be avoided by choosing Method=3)

Solved with dual simplex

Root relaxation: objective 1.039306e+06, 3343 iterations, 0.88 seconds (1.15 work units)

    Nodes    |    Current Node    |     Objective Bounds      |     Work
 Expl Unexpl |  Obj  Depth IntInf | Incumbent    BestBd   Gap | It/Node Time

     0     0 1039306.42    0  983 2.4705e+07 1039306.42  95.8%     -    2s
H    0     0                    2239434.4470 1039306.42  53.6%     -    3s
H    0     0                    1553361.9229 1039306.42  33.1%     -    3s
     0     0 1064901.98    0 1969 1553361.92 1064901.98  31.4%     -   18s
     0     0 1065909.28    0 1972 1553361.92 1065909.28  31.4%     -   18s
H    0     0                    1417815.6590 1065909.28  24.8%     -   20s
H    0     0                    1417660.4032 1065909.28  24.8%     -   21s
H    0     0                    1417660.3995 1065909.28  24.8%     -   22s
H    0     0                    1407588.3615 1065909.28  24.3%     -   22s
H    0     0                    1406672.1435 1065909.28  24.2%     -   22s
H    0     0                    1406672.1399 1065909.28  24.2%     -   22s
H    0     0                    1372754.6643 1065909.28  22.4%     -   23s
     0     0 1067097.40    0 1884 1372754.66 1067097.40  22.3%     -   24s
     0     0 1217243.95    0 3311 1372754.66 1217243.95  11.3%     -  165s
     0     0 1218125.21    0 2958 1372754.66 1218125.21  11.3%     -  176s
     0     0 1219164.72    0 2815 1372754.66 1219164.72  11.2%     -  181s
     0     0 1219336.95    0 2781 1372754.66 1219336.95  11.2%     -  184s
     0     0 1219389.01    0 2830 1372754.66 1219389.01  11.2%     -  188s
     0     0 1219413.61    0 2805 1372754.66 1219413.61  11.2%     -  190s
     0     0 1219456.31    0 2788 1372754.66 1219456.31  11.2%     -  193s
     0     0 1219493.15    0 2864 1372754.66 1219493.15  11.2%     -  196s
     0     0 1219513.53    0 2765 1372754.66 1219513.53  11.2%     -  199s
     0     0 1219532.95    0 2848 1372754.66 1219532.95  11.2%     -  201s
     0     0 1219549.95    0 2695 1372754.66 1219549.95  11.2%     -  201s
H    0     0                    1372552.0424 1219549.95  11.1%     -  202s
H    0     0                    1363876.1057 1219549.95  10.6%     -  202s
H    0     0                    1363451.7107 1219549.95  10.6%     -  202s
H    0     0                    1363148.9658 1219549.95  10.5%     -  202s
H    0     0                    1362246.6624 1219549.95  10.5%     -  206s
H    0     0                    1357000.4539 1219549.95  10.1%     -  206s
H    0     0                    1356934.9461 1219549.95  10.1%     -  207s
H    0     0                    1356875.6707 1219549.95  10.1%     -  207s
H    0     0                    1356514.4600 1219549.95  10.1%     -  207s
H    0     0                    1356126.0226 1219549.95  10.1%     -  207s
H    0     0                    1356125.8469 1219549.95  10.1%     -  207s
     0     0 1246721.49    0 2956 1356125.85 1246721.49  8.07%     -  290s
     0     0 1248672.02    0 2920 1356125.85 1248672.02  7.92%     -  296s
     0     0 1248932.69    0 2925 1356125.85 1248932.69  7.90%     -  299s
     0     0 1249203.86    0 2901 1356125.85 1249203.86  7.88%     -  302s
     0     0 1249572.43    0 2941 1356125.85 1249572.43  7.86%     -  305s
     0     0 1249760.82    0 2912 1356125.85 1249760.82  7.84%     -  307s
     0     0 1250073.28    0 2902 1356125.85 1250073.28  7.82%     -  309s
     0     0 1250203.17    0 2915 1356125.85 1250203.17  7.81%     -  311s
     0     0 1250368.20    0 2906 1356125.85 1250368.20  7.80%     -  313s
     0     0 1250495.00    0 2891 1356125.85 1250495.00  7.79%     -  314s
     0     0 1250583.91    0 2889 1356125.85 1250583.91  7.78%     -  314s
H    0     0                    1356123.8773 1250594.19  7.78%     -  316s
H    0     0                    1356123.0501 1250594.19  7.78%     -  316s
     0     0 1253568.26    0 2927 1356123.05 1253568.26  7.56%     -  320s
     0     0 1253583.65    0 2925 1356123.05 1253583.65  7.56%     -  321s
     0     0 1253599.09    0 2909 1356123.05 1253599.09  7.56%     -  322s
     0     0 1253600.87    0 2904 1356123.05 1253600.87  7.56%     -  323s
     0     0 1253603.99    0 2902 1356123.05 1253603.99  7.56%     -  323s
     0     0 1253607.99    0 2950 1356123.05 1253607.99  7.56%     -  324s
     0     0 1253611.00    0 2908 1356123.05 1253611.00  7.56%     -  324s
     0     0 1253612.76    0 2898 1356123.05 1253612.76  7.56%     -  325s
     0     0 1253614.25    0 2950 1356123.05 1253614.25  7.56%     -  325s
     0     0 1253616.82    0 2914 1356123.05 1253616.82  7.56%     -  326s
     0     0 1253621.63    0 2937 1356123.05 1253621.63  7.56%     -  326s
     0     0 1253856.91    0 2954 1356123.05 1253856.91  7.54%     -  327s
     0     0 1253862.55    0 2959 1356123.05 1253862.55  7.54%     -  328s
     0     0 1253866.05    0 2913 1356123.05 1253866.05  7.54%     -  329s
     0     0 1253873.22    0 2910 1356123.05 1253873.22  7.54%     -  329s
     0     0 1253882.64    0 2917 1356123.05 1253882.64  7.54%     -  330s
     0     0 1253889.53    0 2927 1356123.05 1253889.53  7.54%     -  331s
     0     0 1253893.68    0 2910 1356123.05 1253893.68  7.54%     -  331s
     0     0 1253897.07    0 2908 1356123.05 1253897.07  7.54%     -  332s
     0     0 1253902.21    0 2914 1356123.05 1253902.21  7.54%     -  332s
     0     0 1253909.52    0 2904 1356123.05 1253909.52  7.54%     -  333s
     0     0 1253913.72    0 2996 1356123.05 1253913.72  7.54%     -  333s
     0     0 1253915.07    0 2995 1356123.05 1253915.07  7.54%     -  333s
     0     0 1253922.26    0 2905 1356123.05 1253922.26  7.54%     -  334s
     0     0 1253927.63    0 2904 1356123.05 1253927.63  7.54%     -  334s
     0     0 1253930.64    0 2914 1356123.05 1253930.64  7.54%     -  335s
     0     0 1253934.75    0 2914 1356123.05 1253934.75  7.54%     -  335s
     0     0 1253939.61    0 2954 1356123.05 1253939.61  7.53%     -  336s
     0     0 1253947.36    0 2904 1356123.05 1253947.36  7.53%     -  337s
     0     0 1253953.32    0 2899 1356123.05 1253953.32  7.53%     -  337s
     0     0 1253954.80    0 2896 1356123.05 1253954.80  7.53%     -  337s
     0     0 1253956.91    0 2898 1356123.05 1253956.91  7.53%     -  338s
     0     0 1253957.72    0 2959 1356123.05 1253957.72  7.53%     -  338s
     0     0 1265604.62    0 3073 1356123.05 1265604.62  6.67%     -  354s
     0     0 1265733.61    0 3133 1356123.05 1265733.61  6.67%     -  357s
     0     0 1265783.69    0 3104 1356123.05 1265783.69  6.66%     -  359s
     0     0 1265841.64    0 3107 1356123.05 1265841.64  6.66%     -  360s
     0     0 1265871.01    0 3094 1356123.05 1265871.01  6.66%     -  362s
     0     0 1265910.96    0 3119 1356123.05 1265910.96  6.65%     -  363s
     0     0 1265987.31    0 3077 1356123.05 1265987.31  6.65%     -  365s
     0     0 1266008.82    0 3074 1356123.05 1266008.82  6.64%     -  366s
     0     0 1266047.11    0 3053 1356123.05 1266047.11  6.64%     -  367s
     0     0 1266082.21    0 3061 1356123.05 1266082.21  6.64%     -  368s
     0     0 1266115.65    0 3075 1356123.05 1266115.65  6.64%     -  368s
H    0     0                    1355845.0723 1266144.36  6.62%     -  370s
H    0     0                    1355845.0718 1266144.36  6.62%     -  370s
     0     0 1271331.00    0 3162 1355845.07 1271331.00  6.23%     -  383s
     0     0 1271715.28    0 3084 1355845.07 1271715.28  6.20%     -  386s
     0     0 1272732.92    0 3064 1355845.07 1272732.92  6.13%     -  391s
     0     0 1272815.90    0 3061 1355845.07 1272815.90  6.12%     -  392s
     0     0 1272855.56    0 3041 1355845.07 1272855.56  6.12%     -  393s
     0     0 1272949.01    0 3038 1355845.07 1272949.01  6.11%     -  395s
     0     0 1273041.76    0 3019 1355845.07 1273041.76  6.11%     -  396s
     0     0 1273079.98    0 3033 1355845.07 1273079.98  6.10%     -  397s
     0     0 1273270.20    0 3037 1355845.07 1273270.20  6.09%     -  398s
     0     0 1273386.58    0 3017 1355845.07 1273386.58  6.08%     -  399s
     0     0 1273440.98    0 3057 1355845.07 1273440.98  6.08%     -  400s
     0     0 1275271.16    0 3081 1355845.07 1275271.16  5.94%     -  403s
     0     0 1275318.26    0 3096 1355845.07 1275318.26  5.94%     -  404s
     0     0 1275631.44    0 3079 1355845.07 1275631.44  5.92%     -  405s
     0     0 1275708.61    0 3113 1355845.07 1275708.61  5.91%     -  406s
     0     0 1275871.41    0 3056 1355845.07 1275871.41  5.90%     -  407s
     0     0 1275875.72    0 3068 1355845.07 1275875.72  5.90%     -  407s
     0     0 1275989.96    0 3058 1355845.07 1275989.96  5.89%     -  408s
     0     0 1276043.12    0 3044 1355845.07 1276043.12  5.89%     -  409s
     0     0 1276063.81    0 3031 1355845.07 1276063.81  5.88%     -  410s
     0     0 1276097.40    0 3026 1355845.07 1276097.40  5.88%     -  410s
     0     0 1276098.78    0 3062 1355845.07 1276098.78  5.88%     -  410s
     0     0 1276704.37    0 3082 1355845.07 1276704.37  5.84%     -  412s
     0     0 1276719.89    0 3032 1355845.07 1276719.89  5.84%     -  413s
     0     0 1276725.07    0 3027 1355845.07 1276725.07  5.84%     -  413s
     0     0 1276728.26    0 3026 1355845.07 1276728.26  5.84%     -  414s
     0     0 1276730.44    0 3021 1355845.07 1276730.44  5.84%     -  414s
     0     0 1276731.86    0 3022 1355845.07 1276731.86  5.83%     -  415s
     0     0 1276740.33    0 3064 1355845.07 1276740.33  5.83%     -  415s
     0     0 1276749.67    0 3063 1355845.07 1276749.67  5.83%     -  416s
     0     0 1276762.23    0 3016 1355845.07 1276762.23  5.83%     -  416s
     0     0 1276763.19    0 3009 1355845.07 1276763.19  5.83%     -  416s
     0     0 1276817.74    0 2993 1355845.07 1276817.74  5.83%     -  417s
     0     0 1276930.55    0 3022 1355845.07 1276930.55  5.82%     -  418s
     0     0 1276935.39    0 3071 1355845.07 1276935.39  5.82%     -  418s
     0     0 1276938.17    0 3032 1355845.07 1276938.17  5.82%     -  418s
     0     0 1276948.07    0 3036 1355845.07 1276948.07  5.82%     -  419s
     0     0 1276949.76    0 3028 1355845.07 1276949.76  5.82%     -  419s
     0     0 1276957.54    0 3032 1355845.07 1276957.54  5.82%     -  420s
     0     0 1276959.01    0 3039 1355845.07 1276959.01  5.82%     -  420s
     0     0 1276964.97    0 3027 1355845.07 1276964.97  5.82%     -  420s
     0     0 1276966.91    0 3020 1355845.07 1276966.91  5.82%     -  420s
     0     0 1276969.21    0 3021 1355845.07 1276969.21  5.82%     -  421s
     0     0 1276970.60    0 3023 1355845.07 1276970.60  5.82%     -  421s
     0     0 1277014.36    0 3018 1355845.07 1277014.36  5.81%     -  421s
     0     0 1277015.16    0 3014 1355845.07 1277015.16  5.81%     -  421s
     0     0 1277021.57    0 3061 1355845.07 1277021.57  5.81%     -  422s
     0     0 1277024.51    0 3014 1355845.07 1277024.51  5.81%     -  422s
     0     0 1277026.45    0 3016 1355845.07 1277026.45  5.81%     -  422s
     0     0 1277029.99    0 3051 1355845.07 1277029.99  5.81%     -  422s
     0     0 1277172.01    0 3017 1355845.07 1277172.01  5.80%     -  423s
     0     0 1277189.46    0 3018 1355845.07 1277189.46  5.80%     -  423s
     0     0 1277196.84    0 3014 1355845.07 1277196.84  5.80%     -  423s
     0     0 1277201.34    0 3017 1355845.07 1277201.34  5.80%     -  423s
     0     0 1277202.28    0 3017 1355845.07 1277202.28  5.80%     -  423s
     0     0 1277264.38    0 3012 1355845.07 1277264.38  5.80%     -  424s
     0     0 1277265.16    0 3015 1355845.07 1277265.16  5.80%     -  424s
     0     0 1277266.97    0 3017 1355845.07 1277266.97  5.80%     -  424s
     0     0 1277274.13    0 3020 1355845.07 1277274.13  5.79%     -  425s
     0     0 1277277.78    0 3017 1355845.07 1277277.78  5.79%     -  425s
     0     0 1277278.45    0 3019 1355845.07 1277278.45  5.79%     -  425s
     0     0 1277278.86    0 3018 1355845.07 1277278.86  5.79%     -  425s
     0     0 1277279.24    0 3018 1355845.07 1277279.24  5.79%     -  425s
     0     0 1277279.90    0 3019 1355845.07 1277279.90  5.79%     -  425s
     0     0 1277280.42    0 3015 1355845.07 1277280.42  5.79%     -  425s
     0     0 1277280.89    0 3015 1355845.07 1277280.89  5.79%     -  426s
     0     0 1277285.99    0 3026 1355845.07 1277285.99  5.79%     -  426s
     0     0 1277286.60    0 3037 1355845.07 1277286.60  5.79%     -  426s
     0     0 1277288.97    0 3032 1355845.07 1277288.97  5.79%     -  426s
     0     0 1277289.56    0 3072 1355845.07 1277289.56  5.79%     -  426s
     0     0 1277290.70    0 3030 1355845.07 1277290.70  5.79%     -  426s
     0     0 1277291.93    0 3035 1355845.07 1277291.93  5.79%     -  427s
     0     0 1277293.40    0 3032 1355845.07 1277293.40  5.79%     -  427s
     0     0 1277295.89    0 3030 1355845.07 1277295.89  5.79%     -  427s
     0     0 1277298.06    0 3030 1355845.07 1277298.06  5.79%     -  427s
     0     0 1277298.82    0 3027 1355845.07 1277298.82  5.79%     -  427s
     0     0 1277299.20    0 3031 1355845.07 1277299.20  5.79%     -  427s
     0     0 1277302.49    0 3026 1355845.07 1277302.49  5.79%     -  427s
     0     0 1277302.87    0 3018 1355845.07 1277302.87  5.79%     -  428s
     0     0 1277303.44    0 3019 1355845.07 1277303.44  5.79%     -  428s
     0     0 1277306.13    0 3015 1355845.07 1277306.13  5.79%     -  428s
     0     0 1277306.27    0 3020 1355845.07 1277306.27  5.79%     -  428s
     0     0 1277306.49    0 3016 1355845.07 1277306.49  5.79%     -  428s
     0     0 1277307.96    0 3016 1355845.07 1277307.96  5.79%     -  428s
     0     0 1277308.82    0 3017 1355845.07 1277308.82  5.79%     -  428s
     0     0 1277309.59    0 3018 1355845.07 1277309.59  5.79%     -  428s
     0     0 1277310.74    0 3014 1355845.07 1277310.74  5.79%     -  428s
     0     0 1277311.88    0 3022 1355845.07 1277311.88  5.79%     -  428s
     0     0 1291069.02    0 3254 1355845.07 1291069.02  4.78%     -  483s
     0     0 1291395.54    0 3197 1355845.07 1291395.54  4.75%     -  488s
     0     0 1291467.34    0 3119 1355845.07 1291467.34  4.75%     -  490s
     0     0 1291578.08    0 3172 1355845.07 1291578.08  4.74%     -  492s
     0     0 1291616.99    0 3211 1355845.07 1291616.99  4.74%     -  494s
     0     0 1291692.24    0 3087 1355845.07 1291692.24  4.73%     -  496s
     0     0 1291733.10    0 3075 1355845.07 1291733.10  4.73%     -  497s
     0     0 1291777.91    0 3065 1355845.07 1291777.91  4.73%     -  498s
     0     0 1291798.16    0 3127 1355845.07 1291798.16  4.72%     -  500s
     0     0 1291864.92    0 3176 1355845.07 1291864.92  4.72%     -  501s
     0     0 1291900.49    0 3073 1355845.07 1291900.49  4.72%     -  502s
     0     0 1294480.16    0 3230 1355845.07 1294480.16  4.53%     -  511s
     0     0 1294549.36    0 3290 1355845.07 1294549.36  4.52%     -  513s
     0     0 1294596.29    0 3299 1355845.07 1294596.29  4.52%     -  515s
     0     0 1294646.85    0 3268 1355845.07 1294646.85  4.51%     -  516s
     0     0 1294732.37    0 3262 1355845.07 1294732.37  4.51%     -  518s
     0     0 1294758.97    0 3249 1355845.07 1294758.97  4.51%     -  519s
     0     0 1294797.76    0 3247 1355845.07 1294797.76  4.50%     -  520s
     0     0 1294815.91    0 3226 1355845.07 1294815.91  4.50%     -  521s
     0     0 1294842.81    0 3225 1355845.07 1294842.81  4.50%     -  522s
     0     0 1294869.11    0 3238 1355845.07 1294869.11  4.50%     -  523s
     0     0 1294883.84    0 3231 1355845.07 1294883.84  4.50%     -  523s
     0     0 1295416.20    0 3205 1355845.07 1295416.20  4.46%     -  526s
     0     0 1295425.45    0 3195 1355845.07 1295425.45  4.46%     -  526s
     0     0 1295443.14    0 3204 1355845.07 1295443.14  4.45%     -  527s
     0     0 1295446.00    0 3217 1355845.07 1295446.00  4.45%     -  528s
     0     0 1295456.57    0 3218 1355845.07 1295456.57  4.45%     -  528s
     0     0 1295464.62    0 3203 1355845.07 1295464.62  4.45%     -  529s
     0     0 1295480.09    0 3200 1355845.07 1295480.09  4.45%     -  529s
     0     0 1295485.37    0 3204 1355845.07 1295485.37  4.45%     -  530s
     0     0 1295579.44    0 3177 1355845.07 1295579.44  4.44%     -  531s
     0     0 1295585.06    0 3166 1355845.07 1295585.06  4.44%     -  531s
     0     0 1295586.56    0 3169 1355845.07 1295586.56  4.44%     -  531s
     0     0 1295826.43    0 3209 1355845.07 1295826.43  4.43%     -  533s
     0     0 1295833.85    0 3202 1355845.07 1295833.85  4.43%     -  534s
     0     0 1295840.12    0 3201 1355845.07 1295840.12  4.43%     -  534s
     0     0 1295846.26    0 3198 1355845.07 1295846.26  4.43%     -  535s
     0     0 1295849.95    0 3194 1355845.07 1295849.95  4.42%     -  535s
     0     0 1295855.66    0 3201 1355845.07 1295855.66  4.42%     -  535s
     0     0 1295857.79    0 3208 1355845.07 1295857.79  4.42%     -  535s
     0     0 1295859.49    0 3200 1355845.07 1295859.49  4.42%     -  536s
     0     0 1295861.65    0 3197 1355845.07 1295861.65  4.42%     -  536s
     0     0 1295862.94    0 3201 1355845.07 1295862.94  4.42%     -  536s
     0     0 1295887.11    0 3189 1355845.07 1295887.11  4.42%     -  536s
     0     0 1296246.60    0 3170 1355845.07 1296246.60  4.40%     -  539s
     0     0 1296377.14    0 3139 1355845.07 1296377.14  4.39%     -  540s
     0     0 1296441.26    0 3146 1355845.07 1296441.26  4.38%     -  541s
     0     0 1296455.74    0 3137 1355845.07 1296455.74  4.38%     -  541s
     0     0 1296456.83    0 3124 1355845.07 1296456.83  4.38%     -  542s
     0     0 1296463.48    0 3134 1355845.07 1296463.48  4.38%     -  542s
     0     0 1296468.11    0 3119 1355845.07 1296468.11  4.38%     -  542s
     0     0 1296474.58    0 3128 1355845.07 1296474.58  4.38%     -  542s
     0     0 1296474.64    0 3131 1355845.07 1296474.64  4.38%     -  543s
     0     0 1296477.23    0 3128 1355845.07 1296477.23  4.38%     -  543s
     0     0 1296477.41    0 3126 1355845.07 1296477.41  4.38%     -  543s
     0     0 1296696.12    0 3158 1355845.07 1296696.12  4.36%     -  545s
     0     0 1296699.85    0 3143 1355845.07 1296699.85  4.36%     -  545s
     0     0 1296712.70    0 3166 1355845.07 1296712.70  4.36%     -  545s
     0     0 1296721.07    0 3157 1355845.07 1296721.07  4.36%     -  546s
     0     0 1296728.69    0 3147 1355845.07 1296728.69  4.36%     -  546s
     0     0 1296728.80    0 3145 1355845.07 1296728.80  4.36%     -  546s
     0     0 1296729.20    0 3144 1355845.07 1296729.20  4.36%     -  546s
     0     0 1296729.31    0 3146 1355845.07 1296729.31  4.36%     -  546s
     0     0 1296731.98    0 3150 1355845.07 1296731.98  4.36%     -  547s
     0     0 1296732.38    0 3147 1355845.07 1296732.38  4.36%     -  547s
     0     0 1296742.82    0 3146 1355845.07 1296742.82  4.36%     -  547s
     0     0 1296759.71    0 3154 1355845.07 1296759.71  4.36%     -  547s
     0     0 1296759.94    0 3156 1355845.07 1296759.94  4.36%     -  548s
     0     0 1296766.24    0 3175 1355845.07 1296766.24  4.36%     -  548s
     0     0 1296766.74    0 3173 1355845.07 1296766.74  4.36%     -  548s
     0     0 1296893.07    0 3125 1355845.07 1296893.07  4.35%     -  549s
     0     0 1296893.39    0 3126 1355845.07 1296893.39  4.35%     -  549s
     0     0 1296893.55    0 3120 1355845.07 1296893.55  4.35%     -  549s
     0     0 1296893.81    0 3121 1355845.07 1296893.81  4.35%     -  550s
     0     0 1296893.93    0 3119 1355845.07 1296893.93  4.35%     -  550s
     0     0 1296894.25    0 3117 1355845.07 1296894.25  4.35%     -  550s
     0     0 1296894.56    0 3121 1355845.07 1296894.56  4.35%     -  550s
     0     0 1296895.41    0 3127 1355845.07 1296895.41  4.35%     -  550s
     0     0 1296895.58    0 3124 1355845.07 1296895.58  4.35%     -  550s
     0     0 1296895.69    0 3125 1355845.07 1296895.69  4.35%     -  550s
     0     0 1296896.09    0 3128 1355845.07 1296896.09  4.35%     -  550s
     0     0 1296896.61    0 3124 1355845.07 1296896.61  4.35%     -  551s
     0     0 1296896.69    0 3127 1355845.07 1296896.69  4.35%     -  551s
     0     0 1296896.89    0 3127 1355845.07 1296896.89  4.35%     -  551s
     0     0 1296897.25    0 3124 1355845.07 1296897.25  4.35%     -  551s
     0     0 1296897.46    0 3126 1355845.07 1296897.46  4.35%     -  551s
     0     0 1296897.60    0 3128 1355845.07 1296897.60  4.35%     -  551s
     0     0 1296897.62    0 3123 1355845.07 1296897.62  4.35%     -  551s
     0     0 1302439.72    0 3425 1355845.07 1302439.72  3.94%     -  567s
     0     0 1302801.06    0 3389 1355845.07 1302801.06  3.91%     -  572s
     0     0 1302920.47    0 3329 1355845.07 1302920.47  3.90%     -  574s
     0     0 1302980.54    0 3316 1355845.07 1302980.54  3.90%     -  576s
     0     0 1303013.03    0 3327 1355845.07 1303013.03  3.90%     -  577s
     0     0 1303046.44    0 3312 1355845.07 1303046.44  3.89%     -  578s
     0     0 1303080.49    0 3282 1355845.07 1303080.49  3.89%     -  579s
     0     0 1303107.55    0 3304 1355845.07 1303107.55  3.89%     -  580s
     0     0 1303142.83    0 3310 1355845.07 1303142.83  3.89%     -  581s
     0     0 1303186.41    0 3286 1355845.07 1303186.41  3.88%     -  582s
     0     0 1303221.09    0 3307 1355845.07 1303221.09  3.88%     -  582s
H    0     0                    1353455.9986 1303221.63  3.71%     -  583s
H    0     0                    1353455.9982 1303221.63  3.71%     -  583s
H    0     0                    1353307.1285 1303221.63  3.70%     -  585s
H    0     0                    1349666.7499 1303221.63  3.44%     -  585s
     0     0 1305229.39    0 3416 1349666.75 1305229.39  3.29%     -  593s
     0     0 1305960.41    0 3392 1349666.75 1305960.41  3.24%     -  600s
     0     0 1306222.27    0 3423 1349666.75 1306222.27  3.22%     -  603s
     0     0 1306741.36    0 3280 1349666.75 1306741.36  3.18%     -  607s
     0     0 1306889.29    0 3257 1349666.75 1306889.29  3.17%     -  609s
     0     0 1307014.60    0 3229 1349666.75 1307014.60  3.16%     -  611s
     0     0 1307394.81    0 3233 1349666.75 1307394.81  3.13%     -  613s
     0     0 1307453.44    0 3230 1349666.75 1307453.44  3.13%     -  614s
     0     0 1307699.73    0 3203 1349666.75 1307699.73  3.11%     -  616s
     0     0 1307711.67    0 3189 1349666.75 1307711.67  3.11%     -  617s
     0     0 1308147.87    0 3268 1349666.75 1308147.87  3.08%     -  619s
     0     0 1308636.14    0 3318 1349666.75 1308636.14  3.04%     -  622s
     0     0 1308660.17    0 3291 1349666.75 1308660.17  3.04%     -  623s
     0     0 1308669.39    0 3283 1349666.75 1308669.39  3.04%     -  624s
     0     0 1308679.83    0 3264 1349666.75 1308679.83  3.04%     -  625s
     0     0 1308687.39    0 3269 1349666.75 1308687.39  3.04%     -  625s
     0     0 1308689.00    0 3261 1349666.75 1308689.00  3.04%     -  625s
     0     0 1308694.06    0 3256 1349666.75 1308694.06  3.04%     -  626s
     0     0 1308695.45    0 3259 1349666.75 1308695.45  3.04%     -  626s
     0     0 1308701.08    0 3255 1349666.75 1308701.08  3.04%     -  626s
     0     0 1308702.09    0 3258 1349666.75 1308702.09  3.04%     -  627s
     0     0 1308707.45    0 3252 1349666.75 1308707.45  3.03%     -  627s
     0     0 1308798.38    0 3289 1349666.75 1308798.38  3.03%     -  628s
     0     0 1308800.04    0 3293 1349666.75 1308800.04  3.03%     -  629s
     0     0 1308801.31    0 3285 1349666.75 1308801.31  3.03%     -  629s
     0     0 1308802.11    0 3274 1349666.75 1308802.11  3.03%     -  629s
     0     0 1308804.80    0 3268 1349666.75 1308804.80  3.03%     -  629s
     0     0 1308805.95    0 3270 1349666.75 1308805.95  3.03%     -  630s
     0     0 1308808.29    0 3267 1349666.75 1308808.29  3.03%     -  630s
     0     0 1308809.25    0 3270 1349666.75 1308809.25  3.03%     -  630s
     0     0 1308812.08    0 3269 1349666.75 1308812.08  3.03%     -  630s
     0     0 1308813.88    0 3271 1349666.75 1308813.88  3.03%     -  631s
     0     0 1308816.52    0 3260 1349666.75 1308816.52  3.03%     -  631s
     0     0 1308842.98    0 3282 1349666.75 1308842.98  3.02%     -  631s
     0     0 1308846.72    0 3279 1349666.75 1308846.72  3.02%     -  632s
     0     0 1308850.96    0 3280 1349666.75 1308850.96  3.02%     -  632s
     0     0 1308856.10    0 3261 1349666.75 1308856.10  3.02%     -  632s
     0     0 1308958.92    0 3252 1349666.75 1308958.92  3.02%     -  633s
     0     0 1308976.40    0 3240 1349666.75 1308976.40  3.01%     -  634s
     0     0 1308977.23    0 3243 1349666.75 1308977.23  3.01%     -  634s
     0     0 1308978.39    0 3250 1349666.75 1308978.39  3.01%     -  634s
     0     0 1308981.19    0 3240 1349666.75 1308981.19  3.01%     -  634s
     0     0 1308981.50    0 3240 1349666.75 1308981.50  3.01%     -  635s
     0     0 1308982.28    0 3249 1349666.75 1308982.28  3.01%     -  635s
     0     0 1309063.34    0 3259 1349666.75 1309063.34  3.01%     -  635s
     0     0 1309108.34    0 3211 1349666.75 1309108.34  3.01%     -  636s
     0     0 1309115.61    0 3221 1349666.75 1309115.61  3.00%     -  637s
     0     0 1309116.15    0 3212 1349666.75 1309116.15  3.00%     -  637s
     0     0 1309122.65    0 3241 1349666.75 1309122.65  3.00%     -  637s
     0     0 1309122.93    0 3233 1349666.75 1309122.93  3.00%     -  637s
     0     0 1309124.48    0 3238 1349666.75 1309124.48  3.00%     -  638s
     0     0 1309124.57    0 3235 1349666.75 1309124.57  3.00%     -  638s
     0     0 1309124.65    0 3235 1349666.75 1309124.65  3.00%     -  638s
     0     0 1309124.73    0 3234 1349666.75 1309124.73  3.00%     -  638s
     0     0 1309125.32    0 3233 1349666.75 1309125.32  3.00%     -  638s
     0     0 1309214.73    0 3241 1349666.75 1309214.73  3.00%     -  639s
     0     0 1309215.68    0 3235 1349666.75 1309215.68  3.00%     -  639s
     0     0 1309218.57    0 3242 1349666.75 1309218.57  3.00%     -  640s
     0     0 1309219.08    0 3245 1349666.75 1309219.08  3.00%     -  640s
     0     0 1309219.63    0 3242 1349666.75 1309219.63  3.00%     -  640s
     0     0 1309220.37    0 3235 1349666.75 1309220.37  3.00%     -  640s
     0     0 1309223.68    0 3228 1349666.75 1309223.68  3.00%     -  640s
     0     0 1309223.75    0 3228 1349666.75 1309223.75  3.00%     -  640s
     0     0 1309224.04    0 3226 1349666.75 1309224.04  3.00%     -  640s
     0     0 1309224.15    0 3226 1349666.75 1309224.15  3.00%     -  641s
     0     0 1309224.36    0 3229 1349666.75 1309224.36  3.00%     -  641s
     0     0 1309224.76    0 3247 1349666.75 1309224.76  3.00%     -  641s
     0     0 1309224.90    0 3246 1349666.75 1309224.90  3.00%     -  641s
     0     0 1309224.98    0 3244 1349666.75 1309224.98  3.00%     -  641s
     0     0 1309225.01    0 3243 1349666.75 1309225.01  3.00%     -  641s
     0     0 1309225.04    0 3241 1349666.75 1309225.04  3.00%     -  641s
     0     0 1309225.06    0 3243 1349666.75 1309225.06  3.00%     -  641s
     0     0 1309225.07    0 3244 1349666.75 1309225.07  3.00%     -  641s
     0     0 1309225.09    0 3246 1349666.75 1309225.09  3.00%     -  642s
     0     0 1309225.09    0 3246 1349666.75 1309225.09  3.00%     -  642s
     0     0 1309225.09    0 3244 1349666.75 1309225.09  3.00%     -  642s
     0     0 1309225.10    0 3244 1349666.75 1309225.10  3.00%     -  642s
     0     0 1312262.33    0 3306 1349666.75 1312262.33  2.77%     -  654s
     0     0 1312708.15    0 3243 1349666.75 1312708.15  2.74%     -  660s
     0     0 1312891.44    0 3146 1349666.75 1312891.44  2.72%     -  664s
     0     0 1313034.92    0 3147 1349666.75 1313034.92  2.71%     -  666s
     0     0 1313091.81    0 3164 1349666.75 1313091.81  2.71%     -  668s
     0     0 1313161.06    0 3198 1349666.75 1313161.06  2.70%     -  670s
     0     0 1313176.77    0 3170 1349666.75 1313176.77  2.70%     -  671s
     0     0 1313208.07    0 3186 1349666.75 1313208.07  2.70%     -  673s
     0     0 1313270.75    0 3141 1349666.75 1313270.75  2.70%     -  674s
     0     0 1313385.99    0 3191 1349666.75 1313385.99  2.69%     -  676s
     0     0 1313472.16    0 3127 1349666.75 1313472.16  2.68%     -  677s
H    0     0                    1348388.8080 1313472.37  2.59%     -  677s
H    0     0                    1348388.8074 1313472.37  2.59%     -  677s
H    0     0                    1347703.1355 1313472.37  2.54%     -  678s
H    0     0                    1347703.1343 1313472.37  2.54%     -  678s
     0     0 1313973.48    0 3187 1347703.13 1313973.48  2.50%     -  682s
     0     0 1314070.62    0 3151 1347703.13 1314070.62  2.50%     -  684s
     0     0 1314170.89    0 3151 1347703.13 1314170.89  2.49%     -  686s
     0     0 1314221.03    0 3208 1347703.13 1314221.03  2.48%     -  687s
     0     0 1314271.47    0 3125 1347703.13 1314271.47  2.48%     -  688s
     0     0 1314768.56    0 3153 1347703.13 1314768.56  2.44%     -  693s
     0     0 1315042.26    0 3106 1347703.13 1315042.26  2.42%     -  696s
     0     0 1315081.32    0 3145 1347703.13 1315081.32  2.42%     -  698s
     0     0 1315101.93    0 3165 1347703.13 1315101.93  2.42%     -  700s
     0     0 1315116.68    0 3134 1347703.13 1315116.68  2.42%     -  701s
     0     0 1315125.63    0 3139 1347703.13 1315125.63  2.42%     -  702s
     0     0 1315551.36    0 3166 1347703.13 1315551.36  2.39%     -  705s
     0     0 1315582.38    0 3134 1347703.13 1315582.38  2.38%     -  707s
     0     0 1315607.27    0 3119 1347703.13 1315607.27  2.38%     -  709s
     0     0 1315615.15    0 3052 1347703.13 1315615.15  2.38%     -  709s
     0     0 1315622.96    0 3121 1347703.13 1315622.96  2.38%     -  710s
     0     0 1315631.52    0 3170 1347703.13 1315631.52  2.38%     -  712s
     0     0 1315658.76    0 3140 1347703.13 1315658.76  2.38%     -  713s
     0     0 1315670.51    0 3148 1347703.13 1315670.51  2.38%     -  715s
     0     0 1315687.38    0 3092 1347703.13 1315687.38  2.38%     -  716s
     0     0 1315695.14    0 3085 1347703.13 1315695.14  2.38%     -  717s
     0     0 1315700.92    0 3156 1347703.13 1315700.92  2.37%     -  717s
     0     0 1315818.96    0 3082 1347703.13 1315818.96  2.37%     -  719s
     0     0 1315824.40    0 3064 1347703.13 1315824.40  2.37%     -  719s
     0     0 1315827.41    0 3024 1347703.13 1315827.41  2.37%     -  720s
     0     0 1315871.19    0 3154 1347703.13 1315871.19  2.36%     -  721s
     0     0 1315882.79    0 3068 1347703.13 1315882.79  2.36%     -  722s
     0     0 1315889.94    0 3027 1347703.13 1315889.94  2.36%     -  723s
     0     0 1315891.49    0 3026 1347703.13 1315891.49  2.36%     -  723s
     0     0 1315893.04    0 3102 1347703.13 1315893.04  2.36%     -  724s
     0     0 1315894.27    0 3133 1347703.13 1315894.27  2.36%     -  724s
     0     0 1315895.28    0 3028 1347703.13 1315895.28  2.36%     -  725s
     0     0 1315897.62    0 3054 1347703.13 1315897.62  2.36%     -  725s
     0     0 1315906.02    0 3082 1347703.13 1315906.02  2.36%     -  725s
     0     0 1315907.43    0 3025 1347703.13 1315907.43  2.36%     -  726s
     0     0 1315908.63    0 3018 1347703.13 1315908.63  2.36%     -  726s
     0     0 1315909.32    0 3013 1347703.13 1315909.32  2.36%     -  726s
     0     0 1315910.07    0 3059 1347703.13 1315910.07  2.36%     -  726s
     0     0 1315910.48    0 3050 1347703.13 1315910.48  2.36%     -  727s
     0     0 1315910.88    0 3058 1347703.13 1315910.88  2.36%     -  727s
     0     0 1315911.45    0 3017 1347703.13 1315911.45  2.36%     -  727s
     0     0 1315911.83    0 3016 1347703.13 1315911.83  2.36%     -  727s
     0     0 1315912.26    0 3012 1347703.13 1315912.26  2.36%     -  727s
     0     0 1315912.54    0 3021 1347703.13 1315912.54  2.36%     -  727s
     0     0 1315921.02    0 3042 1347703.13 1315921.02  2.36%     -  728s
     0     0 1315921.42    0 3036 1347703.13 1315921.42  2.36%     -  728s
     0     0 1315922.24    0 3113 1347703.13 1315922.24  2.36%     -  728s
     0     0 1315922.93    0 3042 1347703.13 1315922.93  2.36%     -  728s
     0     0 1315923.74    0 3050 1347703.13 1315923.74  2.36%     -  729s
     0     0 1315924.71    0 3033 1347703.13 1315924.71  2.36%     -  729s
     0     0 1315925.17    0 3038 1347703.13 1315925.17  2.36%     -  729s
     0     0 1315925.60    0 3072 1347703.13 1315925.60  2.36%     -  729s
     0     0 1315928.71    0 3101 1347703.13 1315928.71  2.36%     -  729s
     0     0 1315936.35    0 3027 1347703.13 1315936.35  2.36%     -  730s
     0     0 1315946.60    0 3048 1347703.13 1315946.60  2.36%     -  730s
     0     0 1315947.44    0 3047 1347703.13 1315947.44  2.36%     -  730s
     0     0 1315949.16    0 3025 1347703.13 1315949.16  2.36%     -  730s
     0     0 1315949.30    0 3024 1347703.13 1315949.30  2.36%     -  730s
     0     0 1315949.37    0 3029 1347703.13 1315949.37  2.36%     -  731s
     0     0 1315949.44    0 3027 1347703.13 1315949.44  2.36%     -  731s
     0     0 1315949.49    0 3026 1347703.13 1315949.49  2.36%     -  731s
     0     0 1315949.57    0 3028 1347703.13 1315949.57  2.36%     -  731s
     0     0 1315949.68    0 3025 1347703.13 1315949.68  2.36%     -  731s
     0     0 1315949.76    0 3028 1347703.13 1315949.76  2.36%     -  731s
     0     0 1315949.81    0 3027 1347703.13 1315949.81  2.36%     -  731s
     0     0 1315949.85    0 3026 1347703.13 1315949.85  2.36%     -  731s
     0     0 1318371.79    0 3421 1347703.13 1318371.79  2.18%     -  742s
     0     0 1318371.79    0 2051 1347702.58 1318371.79  2.18%     -  810s
     0     0 1318371.79    0 2197 1347702.58 1318371.79  2.18%     -  819s
     0     0 1318371.79    0 2166 1347702.58 1318371.79  2.18%     -  830s
     0     0 1318371.79    0 2071 1347702.58 1318371.79  2.18%     -  834s
     0     0 1318371.79    0 2233 1347702.58 1318371.79  2.18%     -  838s
     0     0 1318371.79    0 2167 1347702.58 1318371.79  2.18%     -  842s
     0     0 1318371.79    0 2205 1347702.58 1318371.79  2.18%     -  846s
     0     0 1318371.79    0 2220 1347702.58 1318371.79  2.18%     -  849s
     0     0 1318371.79    0 2158 1347702.58 1318371.79  2.18%     -  852s
     0     0 1318371.79    0 2000 1347702.58 1318371.79  2.18%     -  856s
     0     0 1318371.79    0 2045 1347702.58 1318371.79  2.18%     -  859s
     0     0 1328638.33    0 2233 1347702.58 1328638.33  1.41%     - 1055s
     0     0 1328638.33    0 2138 1347702.58 1328638.33  1.41%     - 1058s
     0     0 1328638.33    0 2455 1347702.58 1328638.33  1.41%     - 1063s
     0     0 1328638.33    0 2217 1347702.58 1328638.33  1.41%     - 1067s
     0     0 1328638.33    0 2267 1347702.58 1328638.33  1.41%     - 1073s
     0     0 1328638.33    0 2406 1347702.58 1328638.33  1.41%     - 1079s
     0     0 1328638.33    0 2311 1347702.58 1328638.33  1.41%     - 1084s
     0     0 1328638.33    0 2310 1347702.58 1328638.33  1.41%     - 1087s
     0     0 1328638.33    0 2411 1347702.58 1328638.33  1.41%     - 1091s
     0     0 1328638.33    0 2262 1347702.58 1328638.33  1.41%     - 1095s
     0     0 1328638.33    0 2259 1347702.58 1328638.33  1.41%     - 1097s
     0     0 1337897.52    0 2327 1347702.58 1337897.52  0.73%     - 1111s
     0     0 1337897.52    0 2303 1347702.58 1337897.52  0.73%     - 1115s
     0     0 1337897.52    0 2321 1347702.58 1337897.52  0.73%     - 1121s
     0     0 1337897.52    0 1935 1347702.58 1337897.52  0.73%     - 1124s
     0     0 1337897.52    0 2056 1347702.58 1337897.52  0.73%     - 1126s
     0     0 1337897.52    0 2067 1347702.58 1337897.52  0.73%     - 1128s
     0     0 1337897.52    0 1804 1347702.58 1337897.52  0.73%     - 1129s
     0     0 1337897.52    0 2057 1347702.58 1337897.52  0.73%     - 1131s
     0     0 1337897.52    0 1624 1347702.58 1337897.52  0.73%     - 1132s
     0     0 1337897.52    0 1757 1347702.58 1337897.52  0.73%     - 1133s
     0     0 1337897.52    0 1850 1347702.58 1337897.52  0.73%     - 1134s
     0     0 1347702.57    0 1888 1347702.58 1347702.57  0.00%     - 1135s

Cutting planes:
  Learned: 1
  Cover: 38
  Implied bound: 104
  Clique: 54
  MIR: 11
  Flow cover: 112
  Zero half: 10
  RLT: 75
  Relax-and-lift: 3
  BQP: 29

Explored 1 nodes (599474 simplex iterations) in 1136.01 seconds (2709.48 work units)
Thread count was 10 (of 10 available processors)

Solution count 10: 1.3477e+06 1.3477e+06 1.34839e+06 ... 1.35688e+06

Optimal solution found (tolerance 1.00e-04)
Best objective 1.347702579036e+06, best bound 1.347702568554e+06, gap 0.0000%
